************************************************************************
file with basedata            : c1528_.bas
initial value random generator: 1887131833
************************************************************************
projects                      :  1
jobs (incl. supersource/sink ):  18
horizon                       :  126
RESOURCES
  - renewable                 :  2   R
  - nonrenewable              :  2   N
  - doubly constrained        :  0   D
************************************************************************
PROJECT INFORMATION:
pronr.  #jobs rel.date duedate tardcost  MPM-Time
    1     16      0       15       11       15
************************************************************************
PRECEDENCE RELATIONS:
jobnr.    #modes  #successors   successors
   1        1          3           2   3   4
   2        3          3           7   9  14
   3        3          2           6  12
   4        3          2           5  13
   5        3          2          15  17
   6        3          2          11  16
   7        3          2           8  13
   8        3          2          16  17
   9        3          1          10
  10        3          1          11
  11        3          1          13
  12        3          1          14
  13        3          1          15
  14        3          1          15
  15        3          1          18
  16        3          1          18
  17        3          1          18
  18        1          0        
************************************************************************
REQUESTS/DURATIONS:
jobnr. mode duration  R 1  R 2  N 1  N 2
------------------------------------------------------------------------
  1      1     0       0    0    0    0
  2      1     1       0    2    0    6
         2     5       8    0    9    0
         3     6       6    0    0    5
  3      1     4       6    0    4    0
         2     4       6    0    0    8
         3     8       0    6    3    0
  4      1     3       9    0    0    6
         2     4       8    0    4    0
         3     8       7    0    4    0
  5      1     3       7    0    0    7
         2     3       6    0    8    0
         3     6       0    3    7    0
  6      1     2       7    0    0    6
         2     8       0    9    0    6
         3    10       6    0    0    5
  7      1     8       0    7    0    3
         2     9       0    6    8    0
         3    10       5    0    0    3
  8      1     1       0    3    7    0
         2     8       9    0    6    0
         3     8       2    0    0    1
  9      1     3       0    5    0    4
         2     9       0    3    0    4
         3     9       0    2    9    0
 10      1     1       8    0    4    0
         2     4       7    0    0    6
         3     7       0    4    4    0
 11      1     3       7    0    0    8
         2     6       0    8    7    0
         3     8       0    8    2    0
 12      1     3       0    4    0    8
         2     5       0    3    7    0
         3     9       6    0    0    8
 13      1     4      10    0    0    4
         2     5       0    6    3    0
         3     9       7    0    2    0
 14      1     4       5    0    5    0
         2     5       4    0    5    0
         3     8       0    3    0    2
 15      1     2       0    6    0    7
         2     4       0    4    0    4
         3     5       8    0    0    2
 16      1     1       0    6    6    0
         2     4       0    4    0    8
         3    10       0    3    5    0
 17      1     3       0    5    0    7
         2     3       8    0    0    6
         3     5       4    0    0    6
 18      1     0       0    0    0    0
************************************************************************
RESOURCEAVAILABILITIES:
  R 1  R 2  N 1  N 2
   28   27   81   91
************************************************************************
